c ren 1 -> 1
c ren 2 -> 2
c ren 3 -> 3
c ren 4 -> 4
c ren 5 -> 5
c ren 6 -> 6
c ren 7 -> 7
c ren 8 -> 8
c ren 9 -> 9
c ren 10 -> 10
c ren 11 -> 11
c ren 12 -> 12
c ren 13 -> 13
c ren 14 -> 14
c ren 15 -> 15
c ren 16 -> 16
c ren 17 -> 17
c ren 18 -> 18
c ren 20 -> 19
c ren 21 -> 20
c ren 24 -> 21
c ren 25 -> 22
c ren 55 -> 23
c ren 56 -> 24
c ren 65 -> 25
c ren 66 -> 26
c ren 73 -> 27
c ren 74 -> 28
p cnf 28 79
a 1 2 3 4 5 6 7 8 9 10 11 12 13 0
d 14 1 2 3 4 5 6 7 0
d 15 2 3 4 5 6 7 0
d 16 8 9 10 11 12 13 0
e 17 18 19 20 21 22 23 24 25 26 27 28 0
-12 -17 0
6 -17 0
12 -18 0
-6 -18 0
3 4 5 9 10 11 -15 16 17 18 19 20 21 22 0
-13 -19 0
7 -19 0
13 -20 0
-7 -20 0
3 4 5 9 10 11 15 -16 17 18 19 20 21 22 0
3 4 -5 9 10 -11 -15 16 17 18 19 20 21 22 0
-8 -21 0
2 -21 0
8 -22 0
-2 -22 0
3 4 -5 9 10 -11 15 -16 17 18 19 20 21 22 0
3 -4 5 9 -10 11 15 -16 17 18 19 20 21 22 0
3 -4 5 9 -10 11 -15 16 17 18 19 20 21 22 0
3 -4 -5 9 -10 -11 15 -16 17 18 19 20 21 22 0
3 -4 -5 9 -10 -11 -15 16 17 18 19 20 21 22 0
-3 4 5 -9 10 11 -15 16 17 18 19 20 21 22 0
-3 4 5 -9 10 11 15 -16 17 18 19 20 21 22 0
-3 4 -5 -9 10 -11 15 -16 17 18 19 20 21 22 0
-3 4 -5 -9 10 -11 -15 16 17 18 19 20 21 22 0
-3 -4 5 -9 -10 11 15 -16 17 18 19 20 21 22 0
-3 -4 5 -9 -10 11 -15 16 17 18 19 20 21 22 0
-3 -4 -5 -9 -10 -11 -15 16 17 18 19 20 21 22 0
-3 -4 -5 -9 -10 -11 15 -16 17 18 19 20 21 22 0
1 -2 -3 4 -5 -8 -10 -11 -15 16 23 24 25 26 28 0
5 7 -25 0
-2 4 -7 -26 0
-2 3 -7 -26 0
-2 3 -6 -24 0
-1 -2 4 -5 -8 10 -11 -15 16 23 24 25 26 27 28 0
-2 5 -7 -26 0
-2 3 -4 -5 -8 -10 -11 -15 16 23 24 25 26 27 28 0
1 -2 -3 4 5 -8 -10 11 -15 16 23 24 25 26 28 0
2 -25 0
3 4 5 -8 10 11 -15 16 23 24 25 26 27 28 0
-1 -2 -6 -24 0
-12 -23 0
12 -24 0
-2 6 -7 -26 0
-1 4 5 -8 10 11 -15 16 23 24 25 26 27 28 0
-2 3 4 -5 -8 10 -11 -15 16 23 24 25 26 27 28 0
-1 -2 -7 -26 0
-2 3 -4 5 -8 -10 11 -15 16 23 24 25 26 27 28 0
2 -8 10 11 -15 16 24 26 27 28 0
-2 -3 -4 -5 -6 -7 -15 0
-2 4 -6 -24 0
7 -14 -25 0
4 6 -23 0
-1 6 -23 0
-1 7 -25 0
2 -23 0
6 7 -25 0
-13 -25 0
13 -26 0
1 -2 -3 -4 5 -8 10 -11 -15 16 23 24 25 26 28 0
-1 -2 -3 -28 0
1 -2 -3 -4 -5 -8 10 11 -15 16 23 24 25 26 28 0
1 3 -28 0
-9 -27 0
-1 3 -27 0
1 -3 -4 -5 -6 -7 -25 0
9 -28 0
4 7 -25 0
3 6 -23 0
-1 -2 -4 5 -8 -10 11 -15 16 23 24 25 26 27 28 0
1 -3 -4 -5 -6 -23 0
5 6 -23 0
3 7 -25 0
-1 -2 -4 -5 -8 -10 -11 -15 16 23 24 25 26 27 28 0
1 -2 -3 -4 -5 -6 7 14 -26 0
-1 2 -27 0
1 2 -28 0
-2 5 -6 -24 0
1 -2 -3 -4 -5 6 -24 0
2 3 4 5 6 7 15 0
